(set-logic SLIA)
(define-fun func0  ((A String) (B String) (C String) (D String) (E String) ) String (str.replace (str.replace C  D  E ) A  B ))
(define-fun func1  ((A String) (B String) (C String) (D String) ) String (str.replace A  B  (str.++ C  D )))
(define-fun func2  ((A String) (B String) (C String) ) String (str.++ A  (str.++ B  C )))
(define-fun func3  ((A String) (B String) (C String) (D String) ) String (str.++ A  (str.++ B  (str.++ C  D ))))
(define-fun func4  ((A String) (B String) (C String) (D Int) ) String (str.++ A  (str.++ (str.at C  D ) B )))
(define-fun func5  ((A String) (B String) (C Int) ) String (str.++ (str.at B  C ) A ))
(define-fun func6  ((A String) (B String) ) String (str.++ (str.at B  0 ) A ))
(define-fun func7  ((A String) (B Int) (C String) (D String) (E String) ) String (str.++ (str.at A  B ) (str.++ C  (str.++ D  E ))))
(define-fun func8  ((A String) (B String) (C String) (D String) (E Int) ) String (str.++ A  (str.++ B  (str.++ (str.at D  E ) C ))))
(define-fun func9  ((A String) (B Int) (C String) (D Int) ) String (str.substr A  (+ 1  (str.indexof A  C  D )) B ))
(define-fun func10  ((A String) (B Int) (C String) ) String (str.substr A  (+ 1  (str.indexof A  C  0 )) B ))
(define-fun func11  ((A String) (B Int) (C String) (D String) (E Int) ) String (str.substr A  (+ 1  (str.indexof C  D  E )) B ))
(define-fun func12  ((A String) (B Int) (C String) (D String) ) String (str.substr A  (+ 1  (str.indexof C  D  0 )) B ))
(define-fun func13  ((A String) (B Int) (C Int) ) String (str.substr A  (+ 1  C ) B ))
(define-fun func14  ((A String) (B Int) (C Int) (D String) (E Int) ) String (str.substr A  (+ C  (str.indexof A  D  E )) B ))
(define-fun func15  ((A String) (B Int) (C Int) (D String) ) String (str.substr A  (+ C  (str.indexof A  D  0 )) B ))
(define-fun func16  ((A String) (B Int) (C Int) (D String) (E String) (F Int) ) String (str.substr A  (+ C  (str.indexof D  E  F )) B ))
(define-fun func17  ((A String) (B Int) (C Int) (D String) (E String) ) String (str.substr A  (+ C  (str.indexof D  E  0 )) B ))
(define-fun func18  ((A String) (B Int) (C Int) (D Int) ) String (str.substr A  (+ C  D ) B ))
(define-fun func19  ((A String) (B Int) (C Int) ) String (str.substr A  (+ B  C ) (str.len A )))
(define-fun func20  ((A String) (B Int) (C Int) ) String (str.substr A  (+ B  C ) 3 ))
(define-fun func21  ((A String) (B Int) (C String) (D Int) ) String (str.substr A  1  (- (str.indexof A  C  D ) B )))
(define-fun func22  ((A String) (B Int) (C String) ) String (str.substr A  1  (- (str.indexof A  C  0 ) B )))
(define-fun func23  ((A String) (B Int) (C String) (D String) (E Int) ) String (str.substr A  1  (- (str.indexof C  D  E ) B )))
(define-fun func24  ((A String) (B Int) (C String) (D String) ) String (str.substr A  1  (- (str.indexof C  D  0 ) B )))
(define-fun func25  ((A String) (B String) (C String) (D Int) ) String (str.substr A  1  (- (str.indexof B  C  D ) 1 )))
(define-fun func26  ((A String) (B Int) ) String (str.substr A  1  (- B  1 )))
(define-fun func27  ((A String) (B Int) ) String (str.substr A  0  B ))
(define-fun func28  ((A String) (B String) (C Int) ) String (str.substr A  0  (str.indexof A  B  C )))
(define-fun func29  ((A String) (B String) ) String (str.substr A  0  (str.indexof A  B  0 )))
(define-fun func30  ((A String) (B String) (C String) (D Int) ) String (str.substr A  0  (str.indexof B  C  D )))
(define-fun func31  ((A String) (B String) (C String) ) String (str.substr A  0  (str.indexof B  C  0 )))
(define-fun func32  ((A String) (B Int) (C Int) (D Int) ) String (str.substr A  (- C  D ) B ))
(define-fun func33  ((A String) (B Int) (C String) (D Int) ) String (str.substr A  B  (str.indexof A  C  D )))
(define-fun func34  ((A String) (B Int) (C String) ) String (str.substr A  B  (str.indexof A  C  0 )))
(define-fun func35  ((A String) (B Int) (C String) (D String) (E Int) ) String (str.substr A  B  (str.indexof C  D  E )))
(define-fun func36  ((A String) (B Int) (C String) (D String) ) String (str.substr A  B  (str.indexof C  D  0 )))
(define-fun func37  ((A String) (B Int) ) String (str.substr A  B  (str.len A )))
(define-fun func38  ((A String) (B Int) (C String) (D String) (E Int) ) String (str.substr A  B  (- (str.indexof C  D  E ) 1 )))
(define-fun func39  ((A String) (B Int) (C Int) (D Int) ) String (str.substr A  B  (- C  D )))
(define-fun func40  ((A String) (B Int) (C Int) ) String (str.substr A  B  (- C  1 )))
(define-fun func41  ((A String) (B Int) ) String (str.substr A  B  3 ))
(define-fun func42  ((A String) (B Int) (C Int) (D String) (E String) ) String (str.substr A  (+ C  (str.indexof D  E  1 )) B ))
(define-fun func43  ((A String) (B Int) (C Int) (D String) ) String (str.substr A  (+ B  C ) (str.len D )))
(define-fun func44  ((A String) (B Int) (C String) ) String (str.substr A  B  (str.len C )))
(define-fun func45  ((A String) (B String) (C Int) ) Int (+ 1  (str.indexof A  B  C )))
(define-fun func46  ((A String) (B String) ) Int (+ 1  (str.indexof A  B  0 )))
(define-fun func47  ((A String) (B String) ) Int (+ 1  (str.indexof A  B  1 )))
(define-fun func48  ((A Int) (B Int) (C Int) ) Int (+ A  (+ B  C )))
(define-fun func49  ((A Int) (B String) (C String) (D Int) ) Int (+ A  (str.indexof B  C  D )))
(define-fun func50  ((A Int) (B String) (C String) ) Int (+ A  (str.indexof B  C  1 )))
(define-fun func51  ((A Int) (B String) (C String) ) Int (+ A  (str.indexof B  C  0 )))
(define-fun func52  ((A String) (B String) ) Int (str.indexof A  B  1 ))
(define-fun func53  ((A String) (B String) ) Int (str.indexof A  B  0 ))
(define-fun func54  ((A String) (B String) ) Bool (str.contains A  B ))
(define-fun func55  ((A Int) (B String) (C String) (D Int) ) Int (- (str.indexof B  C  D ) A ))
(define-fun func56  ((A Int) (B String) (C String) ) Int (- (str.indexof B  C  0 ) A ))
(define-fun func57  ((A String) (B String) (C Int) ) Int (- (str.indexof A  B  C ) 1 ))
(define-fun func58  ((A Int) (B String) ) Int (- (str.len B ) A ))
(define-fun func59  ((A String) ) Int (- (str.len A ) 3 ))
(define-fun func60  ((A Int) ) Int (- A  1 ))
(define-fun func61  ((A Int) ) Int (- A  3 ))
(define-fun func62  ((A String) ) String (str.at A  0 ))
(synth-fun f ((name String)) String
( (Start String (ntString))
 (ntString String (
	name " " "+" "-" "." 
	(func0 ntString ntString ntString ntString ntString)
	(func1 ntString ntString ntString ntString)
	(func2 ntString ntString ntString)
	(func3 ntString ntString ntString ntString)
	(func6 ntString ntString)
	(func8 ntString ntString ntString ntString ntInt)
	(func9 ntString ntInt ntString ntInt)
	(func10 ntString ntInt ntString)
	(func11 ntString ntInt ntString ntString ntInt)
	(func14 ntString ntInt ntInt ntString ntInt)
	(func15 ntString ntInt ntInt ntString)
	(func18 ntString ntInt ntInt ntInt)
	(func19 ntString ntInt ntInt)
	(func22 ntString ntInt ntString)
	(func24 ntString ntInt ntString ntString)
	(func27 ntString ntInt)
	(func28 ntString ntString ntInt)
	(func29 ntString ntString)
	(func30 ntString ntString ntString ntInt)
	(func32 ntString ntInt ntInt ntInt)
	(func34 ntString ntInt ntString)
	(func37 ntString ntInt)
	(func39 ntString ntInt ntInt ntInt)
	(func40 ntString ntInt ntInt)
	(func41 ntString ntInt)
	(func42 ntString ntInt ntInt ntString ntString)
	(func62 ntString)
	(str.++ ntString ntString)
	(str.replace ntString ntString ntString)
	(str.at ntString ntInt)
	(int.to.str ntInt)
	(ite ntBool ntString ntString)
	(str.substr ntString ntInt ntInt)
))
 (ntInt Int (
	0 1 2 3 4 5 
	(func47 ntString ntString)
	(func48 ntInt ntInt ntInt)
	(func53 ntString ntString)
	(func55 ntInt ntString ntString ntInt)
	(func58 ntInt ntString)
	(func59 ntString)
	(func60 ntInt)
	(str.len ntString)
	(str.to.int ntString)
	(ite ntBool ntInt ntInt)
	(str.indexof ntString ntString ntInt)
))
 (ntBool Bool (
	true false
	(= ntInt ntInt)
	(str.prefixof ntString ntString)
	(str.suffixof ntString ntString)
	(str.contains ntString ntString)
))
))
(constraint (= (f "+106 769-858-438") "106.769.858.438"))
(constraint (= (f "+83 973-757-831") "83.973.757.831"))
(constraint (= (f "+62 647-787-775") "62.647.787.775"))
(constraint (= (f "+172 027-507-632") "172.027.507.632"))
(constraint (= (f "+72 001-050-856") "72.001.050.856"))
(constraint (= (f "+95 310-537-401") "95.310.537.401"))
(constraint (= (f "+6 775-969-238") "6.775.969.238"))
(check-synth)
